RT is False
Default write of storage_offers_DA.csv just to have a file (but constraint should be inactive)
Reading model...
...model read.
creating competitive generators file...
...competitive generators recorded.
Loading data...
.. day-ahead data with real-time VRE data read.
Compiling instance...
...instance created.
Creating Offer Mitigation (model will solve as dispatch if TRUE)...
NOTE: storage offers will not be mitigated
...storage offer mitigation file created
Converting model to MPEC...
...converted
NOTE: initial MIP solve with only storage competitive to get feasible solution
Solving...

Welcome to IBM(R) ILOG(R) CPLEX(R) Interactive Optimizer 12.9.0.0
  with Simplex, Mixed Integer & Barrier Optimizers
5725-A06 5725-A29 5724-Y48 5724-Y49 5724-Y54 5724-Y55 5655-Y21
Copyright IBM Corp. 1988, 2019.  All Rights Reserved.

Type 'help' for a list of available commands.
Type 'help' followed by a command name for more
information on commands.

CPLEX> Logfile 'cplex.log' closed.
Logfile 'C:\Users\llavin\Desktop\test826\logs\tmp57bf341r.cplex.log' open.
CPLEX> New value for parallel optimization mode: -1
CPLEX> New value for emphasis for MIP optimization: 1
CPLEX> New value for mixed integer optimality gap tolerance: 0.01
CPLEX> New value for integrality tolerance: 1e-12
CPLEX> New value for deterministic time limit in ticks: 75000
CPLEX> Problem 'C:\Users\llavin\Desktop\test826\logs\tmpl2vq2uvg.pyomo.lp' read.
Read time = 0.25 sec. (13.92 ticks)
CPLEX> Problem name         : C:\Users\llavin\Desktop\test826\logs\tmpl2vq2uvg.pyomo.lp
Objective sense      : Maximize
Variables            :   53809  [Nneg: 1,  Box: 22004,  Free: 4464,
                                 Binary: 27340]
Objective nonzeros   :    8980
Linear constraints   :  123253  [Less: 41346,  Greater: 59096,  Equal: 22811]
  Nonzeros           :  293289
  RHS nonzeros       :   67491

Variables            : Min LB: -5000.000        Max UB: 1000000.       
Objective nonzeros   : Min   : 0.5583333        Max   : 722.0000       
Linear constraints   :
  Nonzeros           : Min   : 0.5583333        Max   : 1000000.       
  RHS nonzeros       : Min   : 0.5583333        Max   : 1000000.       
CPLEX> CPXPARAM_Parallel                                -1
CPXPARAM_Emphasis_MIP                            1
CPXPARAM_DetTimeLimit                            75000
CPXPARAM_MIP_Tolerances_MIPGap                   0.01
CPXPARAM_MIP_Tolerances_Integrality              9.9999999999999998e-13
Tried aggregator 4 times.
MIP Presolve eliminated 88758 rows and 19014 columns.
MIP Presolve added 3393 rows and 0 columns.
MIP Presolve modified 24848 coefficients.
Aggregator did 12986 substitutions.
Reduced MIP has 24902 rows, 21253 columns, and 71073 nonzeros.
Reduced MIP has 8385 binaries, 0 generals, 0 SOSs, and 0 indicators.
Presolve time = 0.33 sec. (196.22 ticks)
Probing fixed 378 vars, tightened 5987 bounds.
Probing time = 0.08 sec. (19.99 ticks)
Tried aggregator 2 times.
MIP Presolve eliminated 857 rows and 757 columns.
MIP Presolve modified 3038 coefficients.
Aggregator did 31 substitutions.
Reduced MIP has 24014 rows, 20465 columns, and 68504 nonzeros.
Reduced MIP has 8007 binaries, 0 generals, 0 SOSs, and 0 indicators.
Presolve time = 0.11 sec. (89.42 ticks)
Probing fixed 0 vars, tightened 380 bounds.
Probing time = 0.14 sec. (23.40 ticks)
Clique table members: 42857.
MIP emphasis: integer feasibility.
MIP search method: dynamic search.
Parallel mode: opportunistic, using up to 32 threads.
Root relaxation solution time = 0.50 sec. (777.47 ticks)

        Nodes                                         Cuts/
   Node  Left     Objective  IInf  Best Integer    Best Bound    ItCnt     Gap

      0     0       47.6021   197                     47.6021     6455         
      0     0       47.6021     3                    Cuts: 13     6460         
      0     0       47.6021     1                     Cuts: 3     6464         
*     0+    0                         -107.5193       47.6021           144.27%

Repeating presolve.
Tried aggregator 3 times.
MIP Presolve eliminated 10595 rows and 8231 columns.
MIP Presolve modified 23030 coefficients.
Aggregator did 335 substitutions.
Reduced MIP has 13084 rows, 11899 columns, and 39247 nonzeros.
Reduced MIP has 4434 binaries, 0 generals, 0 SOSs, and 0 indicators.
Presolve time = 0.13 sec. (64.35 ticks)
Probing fixed 725 vars, tightened 33639 bounds.
Probing time = 0.17 sec. (79.26 ticks)
Cover probing fixed 20 vars, tightened 1440 bounds.
Tried aggregator 2 times.
MIP Presolve eliminated 4447 rows and 4237 columns.
MIP Presolve modified 3692 coefficients.
Aggregator did 53 substitutions.
Reduced MIP has 8584 rows, 7608 columns, and 26780 nonzeros.
Reduced MIP has 2806 binaries, 0 generals, 0 SOSs, and 0 indicators.
Presolve time = 0.03 sec. (21.63 ticks)
Probing fixed 100 vars, tightened 4152 bounds.
Probing time = 0.06 sec. (20.85 ticks)
Cover probing fixed 20 vars, tightened 187 bounds.
Tried aggregator 2 times.
MIP Presolve eliminated 373 rows and 339 columns.
MIP Presolve modified 2407 coefficients.
Aggregator did 11 substitutions.
Reduced MIP has 8200 rows, 7257 columns, and 25767 nonzeros.
Reduced MIP has 2664 binaries, 0 generals, 0 SOSs, and 0 indicators.
Presolve time = 0.03 sec. (14.94 ticks)
Probing fixed 8 vars, tightened 2349 bounds.
Probing time = 0.05 sec. (13.54 ticks)
Tried aggregator 2 times.
MIP Presolve eliminated 40 rows and 39 columns.
MIP Presolve modified 2029 coefficients.
Aggregator did 1 substitutions.
Reduced MIP has 8159 rows, 7217 columns, and 25628 nonzeros.
Reduced MIP has 2650 binaries, 0 generals, 0 SOSs, and 0 indicators.
Presolve time = 0.05 sec. (21.69 ticks)
Represolve time = 0.64 sec. (278.34 ticks)
Probing fixed 7 vars, tightened 1941 bounds.
Probing time = 0.03 sec. (9.93 ticks)
Clique table members: 5366.
MIP emphasis: integer feasibility.
MIP search method: dynamic search.
Parallel mode: opportunistic, using up to 32 threads.
Root relaxation solution time = 0.13 sec. (155.87 ticks)

        Nodes                                         Cuts/
   Node  Left     Objective  IInf  Best Integer    Best Bound    ItCnt     Gap

*     0+    0                         -107.5193       47.6021           144.27%
      0     0       47.6021    46     -107.5193       47.6021     9052  144.27%
      0     0       47.6021     2     -107.5193      Cuts: 14     9067  144.27%
      0     0       41.2421     4     -107.5193       Cuts: 5     9074  138.36%
      0     0       41.2421     5     -107.5193       Cuts: 3     9076  138.36%
      0     8    infeasible            -44.3507   Impl Bds: 3     9179  176.74%
Elapsed time = 4.81 sec. (2869.94 ticks, tree = 0.02 MB, solutions = 3)

Implied bound cuts applied:  10
Flow cuts applied:  4
Mixed integer rounding cuts applied:  1
Gomory fractional cuts applied:  8

Root node processing (before b&c):
  Real time             =    4.33 sec. (2868.69 ticks)
Parallel b&c, 32 threads:
  Real time             =    1.06 sec. (181.77 ticks)
  Sync time (average)   =    0.32 sec.
  Wait time (average)   =    0.00 sec.
                          ------------
Total (root+branch&cut) =    5.39 sec. (3050.46 ticks)

Solution pool: 3 solutions saved.

MIP - Integer optimal solution:  Objective = -4.4350673745e+01
Solution time =    5.39 sec.  Iterations = 12736  Nodes = 877
Deterministic time = 3050.61 ticks  (565.87 ticks/sec)

CPLEX> Incumbent solution written to file 'C:\Users\llavin\Desktop\test826\logs\tmp3dvqw5aw.cplex.sol'.
CPLEX> NOTE: no warmstart specified for MIP iteration, default behavior is true
NOTE: resolving with all competitive generators using storage-only solution to warmstart
Solving...

Welcome to IBM(R) ILOG(R) CPLEX(R) Interactive Optimizer 12.9.0.0
  with Simplex, Mixed Integer & Barrier Optimizers
5725-A06 5725-A29 5724-Y48 5724-Y49 5724-Y54 5724-Y55 5655-Y21
Copyright IBM Corp. 1988, 2019.  All Rights Reserved.

Type 'help' for a list of available commands.
Type 'help' followed by a command name for more
information on commands.

CPLEX> Logfile 'cplex.log' closed.
Logfile 'C:\Users\llavin\Desktop\test826\logs\tmpdpcbw6c9.cplex.log' open.
CPLEX> New value for parallel optimization mode: -1
CPLEX> New value for emphasis for MIP optimization: 1
CPLEX> New value for mixed integer optimality gap tolerance: 0.01
CPLEX> New value for integrality tolerance: 1e-12
CPLEX> New value for deterministic time limit in ticks: 75000
CPLEX> Problem 'C:\Users\llavin\Desktop\test826\logs\tmpb6seba03.pyomo.lp' read.
Read time = 0.22 sec. (13.94 ticks)
CPLEX> MIP start file 'C:\Users\llavin\Desktop\test826\logs\tmp9gtj9brs.cplex.mst' read.
CPLEX> Problem name         : C:\Users\llavin\Desktop\test826\logs\tmpb6seba03.pyomo.lp
Objective sense      : Maximize
Variables            :   54529  [Nneg: 1,  Box: 22724,  Free: 4464,
                                 Binary: 27340]
Objective nonzeros   :    9676
Linear constraints   :  123253  [Less: 41346,  Greater: 59096,  Equal: 22811]
  Nonzeros           :  293289
  RHS nonzeros       :   67491

Variables            : Min LB: -5000.000        Max UB: 1000000.       
Objective nonzeros   : Min   : 0.5583333        Max   : 722.0000       
Linear constraints   :
  Nonzeros           : Min   : 0.5583333        Max   : 1000000.       
  RHS nonzeros       : Min   : 0.5583333        Max   : 1000000.       
CPLEX> CPXPARAM_Parallel                                -1
CPXPARAM_Emphasis_MIP                            1
CPXPARAM_DetTimeLimit                            75000
CPXPARAM_MIP_Tolerances_MIPGap                   0.01
CPXPARAM_MIP_Tolerances_Integrality              9.9999999999999998e-13
Warning:  No solution found from 1 MIP starts.
Retaining values of one MIP start for possible repair.
Tried aggregator 4 times.
MIP Presolve eliminated 88758 rows and 19734 columns.
MIP Presolve added 3393 rows and 0 columns.
MIP Presolve modified 24848 coefficients.
Aggregator did 12986 substitutions.
Reduced MIP has 24902 rows, 21253 columns, and 71073 nonzeros.
Reduced MIP has 8385 binaries, 0 generals, 0 SOSs, and 0 indicators.
Presolve time = 0.31 sec. (196.65 ticks)
Probing fixed 378 vars, tightened 5987 bounds.
Probing time = 0.08 sec. (19.99 ticks)
Tried aggregator 2 times.
MIP Presolve eliminated 857 rows and 757 columns.
MIP Presolve modified 3038 coefficients.
Aggregator did 31 substitutions.
Reduced MIP has 24014 rows, 20465 columns, and 68504 nonzeros.
Reduced MIP has 8007 binaries, 0 generals, 0 SOSs, and 0 indicators.
Presolve time = 0.11 sec. (89.43 ticks)
Probing fixed 0 vars, tightened 380 bounds.
Probing time = 0.14 sec. (23.40 ticks)
Clique table members: 42857.
MIP emphasis: integer feasibility.
MIP search method: dynamic search.
Parallel mode: opportunistic, using up to 32 threads.
Root relaxation solution time = 0.53 sec. (811.60 ticks)

        Nodes                                         Cuts/
   Node  Left     Objective  IInf  Best Integer    Best Bound    ItCnt     Gap

      0     0   112892.7000   271                 112892.7000     6855         
      0     0   112595.7236   107                    Cuts: 90     6964         
      0     0   112470.2811    92                    Cuts: 76     7033         
      0     0   112341.6412    82                    Cuts: 36     7066         
Repair heuristic found nothing.
      0    33   110952.5179    61                    Cuts: 18     7707         
Elapsed time = 4.66 sec. (2156.69 ticks, tree = 0.03 MB, solutions = 0)
    729   512   111399.2925    50                 112112.4305    11989         
   1332  1046   110526.8493    28                 112112.4305    17361         
   2019  1674    infeasible                       112112.4305    27865         
   2610  1972   105549.5060    22                 112112.4305    40176         
   3281  2136   111385.8503    69                 112112.4305    46521         
   3915  3023   110176.9675    46                 112112.4305    72243         
*  4046  3150      integral     0   110284.7564   112112.4305    75078    1.66%
   4471  1802   111106.2917    26   110284.7564   112112.4305    87073    1.66%
   5194  2012    infeasible         110284.7564   112112.4305    99123    1.66%
   5695  2250   111223.6893    37   110284.7564   112112.4305   102451    1.66%
   5702  2724        cutoff         110284.7564   112112.4305   116429    1.66%
Elapsed time = 20.20 sec. (6284.55 ticks, tree = 35.87 MB, solutions = 1)
   6932  1236   111478.1290    87   110284.7564   112112.4305   131308    1.66%
  11162  3203   110327.1526    75   110284.7564   112112.4305   154185    1.66%
  15253  4709   111692.5441    59   110284.7564   112112.4305   169082    1.66%
  19254  7258   111598.9616    38   110284.7564   112112.4305   190746    1.66%
  20608 10776   111351.2089    53   110284.7564   112112.4305   219424    1.66%
  24022 11993   110321.9562    58   110284.7564   112112.4305   230509    1.66%
  28349 12929   111869.6074    61   110284.7564   112112.4305   239540    1.66%
  32240 17875   111501.9955    58   110284.7564   112094.5520   284140    1.64%
  35986 21040   111061.5423    46   110284.7564   112094.5520   307410    1.64%
  39889 23937   111328.8453    63   110284.7564   112057.5800   331465    1.61%
Elapsed time = 65.80 sec. (15823.35 ticks, tree = 168.13 MB, solutions = 1)
  43724 25701   111769.4110    64   110284.7564   112051.6885   345466    1.60%
  46016 31466   111079.7070    32   110284.7564   112051.6885   393994    1.60%
  47315 31220   110989.4635    46   110284.7564   112051.6885   391408    1.60%
  50940 32114   111443.7042    53   110284.7564   112051.6885   398862    1.60%
  55078 33219   111278.9742    52   110284.7564   112051.6885   409494    1.60%
  59137 34890   110620.2724    29   110284.7564   112051.6885   423391    1.60%
  62463 39221   111089.4965    58   110284.7564   112051.6885   456966    1.60%
  63842 45711    infeasible         110284.7564   111982.2698   522353    1.54%
  66595   959   111537.8473    35   110284.7564   111875.5873   539716    1.44%
* 68972  3467      integral     0   110923.3402   111875.5873   571277    0.86%
  69789  3231   110653.6587    15   110923.3402   111875.5873   568091    0.86%
Elapsed time = 101.19 sec. (27149.50 ticks, tree = 24.70 MB, solutions = 2)

GUB cover cuts applied:  1
Clique cuts applied:  1
Cover cuts applied:  10
Implied bound cuts applied:  12
Flow cuts applied:  87
Mixed integer rounding cuts applied:  21
Zero-half cuts applied:  1
Lift and project cuts applied:  42
Gomory fractional cuts applied:  12

Root node processing (before b&c):
  Real time             =    2.87 sec. (2101.77 ticks)
Parallel b&c, 32 threads:
  Real time             =   98.83 sec. (25285.58 ticks)
  Sync time (average)   =    3.46 sec.
  Wait time (average)   =    0.35 sec.
                          ------------
Total (root+branch&cut) =  101.70 sec. (27387.35 ticks)

Solution pool: 2 solutions saved.

MIP - Integer optimal, tolerance (0.01/1e-06):  Objective =  1.1092334024e+05
Current MIP best bound =  1.1187558731e+05 (gap = 952.247, 0.86%)
Solution time =  101.74 sec.  Iterations = 581643  Nodes = 70131 (2930)
Deterministic time = 27387.51 ticks  (269.20 ticks/sec)

CPLEX> Incumbent solution written to file 'C:\Users\llavin\Desktop\test826\logs\tmp5brwxz2r.cplex.sol'.
CPLEX> Exporting results... 
